52,52
93,100
44,46
56,59
40,31
48,39
16,22
97,95
24,30
96,95
88,90
55,55
37,33
17,13
55,46
57,58
26,35
49,42
61,54
32,30
82,82
57,60
72,71
98,100
82,78
87,86
31,35
56,58
70,74
91,82
56,51
99,107
34,37
93,85
25,25
66,57
11,16
98,93
59,59
61,54
81,77
34,32
80,73
27,35
11,3
65,61
81,80
65,55
18,18
74,73
88,89
61,63
25,27
21,21
73,67
86,82
45,36
26,21
30,34
35,43
94,90
14,22
52,53
54,58
38,28
65,64
35,35
54,55
19,18
60,56
54,63
52,54
69,75
25,16
52,42

238
177
218
225
190
186
195
217
205
